numOfMachines = 4;
numOfRobots = 2;
numOfJobs = 6;
maxOperations = 3;
operationsCount = [2,2,2,3,3,3];
operation = [
[<0,0,0>,<1,10,0>,<4,18,1>],
[<0,0,0>,<2,10,0>,<4,18,0>],
[<0,0,0>,<1,10,0>,<3,20,0>],
[<0,0,0>,<2,10,0>,<3,15,1>,<4,12,0>],
[<0,0,0>,<1,10,0>,<2,15,1>,<4,12,0>],
[<0,0,0>,<1,10,0>,<2,15,0>,<3,12,0>]
];